Tried aggregator 1 time.
MIP Presolve eliminated 265 rows and 150 columns.
MIP Presolve modified 11968 coefficients.
Reduced MIP has 347 rows, 350 columns, and 10735 nonzeros.
Reduced MIP has 350 binaries, 0 generals, 0 SOSs, and 0 indicators.
Presolve time = 0,05 sec. (36,40 ticks)
Found incumbent of value 99,000000 after 0,07 sec. (57,01 ticks)
Probing time = 0,01 sec. (3,72 ticks)
Tried aggregator 1 time.
MIP Presolve eliminated 83 rows and 0 columns.
MIP Presolve modified 2807 coefficients.
Reduced MIP has 264 rows, 350 columns, and 8023 nonzeros.
Reduced MIP has 350 binaries, 0 generals, 0 SOSs, and 0 indicators.
Presolve time = 0,02 sec. (18,81 ticks)
Probing time = 0,00 sec. (3,28 ticks)
Clique table members: 795.
MIP emphasis: balance optimality and feasibility.
MIP search method: dynamic search.
Parallel mode: deterministic, using up to 8 threads.
Root relaxation solution time = 0,00 sec. (2,20 ticks)

        Nodes                                         Cuts/
   Node  Left     Objective  IInf  Best Integer    Best Bound    ItCnt     Gap

*     0+    0                           99,0000        0,0000           100,00%
*     0+    0                           74,0000        0,0000           100,00%
*     0+    0                           45,0000        0,0000           100,00%
      0     0       39,5292    40       45,0000       39,5292       67   12,16%
*     0+    0                           43,0000       39,5292             8,07%
      0     0        cutoff             43,0000       43,0000      112    0,00%
Elapsed time = 0,21 sec. (101,39 ticks, tree = 0,01 MB, solutions = 4)

GUB cover cuts applied:  9
Clique cuts applied:  5
Implied bound cuts applied:  15
Mixed integer rounding cuts applied:  19
Zero-half cuts applied:  13
Gomory fractional cuts applied:  13

Root node processing (before b&c):
  Real time             =    0,21 sec. (101,45 ticks)
Parallel b&c, 8 threads:
  Real time             =    0,00 sec. (0,00 ticks)
  Sync time (average)   =    0,00 sec.
  Wait time (average)   =    0,00 sec.
                          ------------
Total (root+branch&cut) =    0,21 sec. (101,45 ticks)

